WARNING: for repeatability, setting FPU to use double precision
============================[ Problem Statistics ]=============================
|                                                                             |
|  Number of variables:           100                                         |
|  Number of clauses:             449                                         |
|  Parse time:                   0.00 s                                       |
|  Eliminated clauses:           0.00 Mb                                      |
|  Simplification time:          0.00 s                                       |
|                                                                             |
============================[ Search Statistics ]==============================
| Conflicts |          ORIGINAL         |          LEARNT          | Progress |
|           |    Vars  Clauses Literals |    Limit  Clauses Lit/Cl |          |
===============================================================================
|       100 |      97      445     1352 |      163      100      5 |  0.080 % |
|       250 |      97      445     1352 |      179      163      6 |  0.030 % |
===============================================================================
restarts              : 3
conflicts             : 337            (90689 /sec)
decisions             : 395            (0.00 % random) (106297 /sec)
propagations          : 7836           (2108719 /sec)
conflict literals     : 1778           (25.01 % deleted)
Memory used           : 13.00 MB
CPU time              : 0.003716 s

SATISFIABLE
